Route #1: 1 7 33 41 4 51 47 11 1
Route #2: 1 6 48 37 22 42 30 54 5 50 1
Route #3: 1 36 34 49 39 13 31 32 1
Route #4: 1 35 15 45 14 17 3 8 1
Route #5: 1 23 57 56 18 10 29 19 1
Route #6: 1 9 26 52 16 38 21 43 20 1
Route #7: 1 46 53 25 55 44 1
Route #8: 1 27 40 24 12 1
Route #9: 1 28 2 1
cost 1810
